100 3 100
74 75 16 76 69 89 32 74 94 46 73 39 7 47 13 94 72 11 53 79 88 42 68 9 96 61 15 89 82 86 78 56 61 47 84 82 36 16 57 82 14 30 22 21 77 87 68 49 50 73 80 38 15 47 12 61 15 1 43 53 31 51 67 78 36 49 67 4 6 49 19 36 23 92 66 10 12 67 13 85 3 1 3 13 62 18 66 57 71 97 9 38 28 45 88 95 1 94 44 72 
